Results/Experiment 1 Results/Existing Benchmark/RES_100/i-100-100-15.txt
solutions: 4 nodes: 11  modelTime: 168  solveTime: 27  totalTime: 217  modelSize: 8381  readTime: 22 matchingSize: 50
