Results/Experiment 2 Results/Existing Benchmark/i-100-100-15.lp
clingo version 5.4.0
Reading from tempSRTISolver.lp ...
Solving...
Answer: 1
matched(48,2) matched(79,3) matched(75,4) matched(98,5) matched(97,6) matched(34,7) matched(87,8) matched(93,9) matched(100,10) matched(14,11) matched(42,12) matched(89,13) matched(11,14) matched(18,15) matched(80,16) matched(95,17) matched(15,18) matched(56,19) matched(40,20) matched(81,21) matched(84,22) matched(67,23) matched(82,24) matched(73,25) matched(29,26) matched(71,27) matched(35,28) matched(26,29) matched(74,30) matched(33,31) matched(83,32) matched(31,33) matched(7,34) matched(28,35) matched(88,36) matched(49,37) matched(78,38) matched(58,39) matched(20,40) matched(63,41) matched(12,42) matched(46,43) matched(55,44) matched(47,45) matched(43,46) matched(45,47) matched(2,48) matched(37,49) matched(64,50) matched(60,51) matched(53,52) matched(52,53) matched(65,54) matched(44,55) matched(19,56) matched(77,57) matched(39,58) matched(69,59) matched(51,60) matched(62,61) matched(61,62) matched(41,63) matched(50,64) matched(54,65) matched(91,66) matched(23,67) matched(92,68) matched(59,69) matched(76,70) matched(27,71) matched(96,72) matched(25,73) matched(30,74) matched(4,75) matched(70,76) matched(57,77) matched(38,78) matched(3,79) matched(16,80) matched(21,81) matched(24,82) matched(32,83) matched(22,84) matched(94,85) matched(99,86) matched(8,87) matched(36,88) matched(13,89) matched(1,90) matched(66,91) matched(68,92) matched(9,93) matched(85,94) matched(17,95) matched(72,96) matched(6,97) matched(5,98) matched(86,99) matched(10,100) matched(90,1)
Optimization: 1063
Answer: 2
matched(48,2) matched(79,3) matched(75,4) matched(98,5) matched(97,6) matched(34,7) matched(87,8) matched(93,9) matched(100,10) matched(14,11) matched(42,12) matched(62,13) matched(11,14) matched(18,15) matched(19,16) matched(95,17) matched(15,18) matched(16,19) matched(40,20) matched(81,21) matched(84,22) matched(67,23) matched(82,24) matched(73,25) matched(29,26) matched(71,27) matched(35,28) matched(26,29) matched(74,30) matched(33,31) matched(83,32) matched(31,33) matched(7,34) matched(28,35) matched(88,36) matched(49,37) matched(78,38) matched(58,39) matched(20,40) matched(63,41) matched(12,42) matched(46,43) matched(55,44) matched(47,45) matched(43,46) matched(45,47) matched(2,48) matched(37,49) matched(64,50) matched(60,51) matched(53,52) matched(52,53) matched(65,54) matched(44,55) matched(80,56) matched(61,57) matched(39,58) matched(69,59) matched(51,60) matched(57,61) matched(13,62) matched(41,63) matched(50,64) matched(54,65) matched(91,66) matched(23,67) matched(92,68) matched(59,69) matched(76,70) matched(27,71) matched(77,72) matched(25,73) matched(30,74) matched(4,75) matched(70,76) matched(72,77) matched(38,78) matched(3,79) matched(56,80) matched(21,81) matched(24,82) matched(32,83) matched(22,84) matched(94,85) matched(99,86) matched(8,87) matched(36,88) matched(96,89) matched(1,90) matched(66,91) matched(68,92) matched(9,93) matched(85,94) matched(17,95) matched(89,96) matched(6,97) matched(5,98) matched(86,99) matched(10,100) matched(90,1)
Optimization: 1055
Answer: 3
matched(48,2) matched(79,3) matched(75,4) matched(98,5) matched(97,6) matched(34,7) matched(87,8) matched(93,9) matched(100,10) matched(14,11) matched(42,12) matched(62,13) matched(11,14) matched(18,15) matched(80,16) matched(95,17) matched(15,18) matched(56,19) matched(40,20) matched(81,21) matched(84,22) matched(67,23) matched(82,24) matched(73,25) matched(29,26) matched(71,27) matched(35,28) matched(26,29) matched(74,30) matched(33,31) matched(83,32) matched(31,33) matched(7,34) matched(28,35) matched(88,36) matched(49,37) matched(78,38) matched(58,39) matched(20,40) matched(63,41) matched(12,42) matched(46,43) matched(55,44) matched(47,45) matched(43,46) matched(45,47) matched(2,48) matched(37,49) matched(64,50) matched(60,51) matched(53,52) matched(52,53) matched(65,54) matched(44,55) matched(19,56) matched(61,57) matched(39,58) matched(69,59) matched(51,60) matched(57,61) matched(13,62) matched(41,63) matched(50,64) matched(54,65) matched(91,66) matched(23,67) matched(92,68) matched(59,69) matched(76,70) matched(27,71) matched(77,72) matched(25,73) matched(30,74) matched(4,75) matched(70,76) matched(72,77) matched(38,78) matched(3,79) matched(16,80) matched(21,81) matched(24,82) matched(32,83) matched(22,84) matched(94,85) matched(99,86) matched(8,87) matched(36,88) matched(96,89) matched(1,90) matched(66,91) matched(68,92) matched(9,93) matched(85,94) matched(17,95) matched(89,96) matched(6,97) matched(5,98) matched(86,99) matched(10,100) matched(90,1)
Optimization: 1053
OPTIMUM FOUND

Models       : 3
  Optimum    : yes
Optimization : 1053
Calls        : 1
Time         : 91.826s (Solving: 14.71s 1st Model: 5.22s Unsat: 9.39s)
CPU Time     : 91.823s
